Data path: /scratch/opt/lxu/CFLG/benchmarks/Kgroup_A
Instance: K100.5.con.red
Result path: /scratch/opt/lxu/CFLG/results/Kgroup_A
Solver: Gurobi
Time limit: 7200
Formulation: EFP
Cover: Large
julia --project=. src/main.jl /scratch/opt/lxu/CFLG/benchmarks/Kgroup_A K100.5.con.red /scratch/opt/lxu/CFLG/results/Kgroup_A Gurobi 7200 EFP Large
The latest version of Julia in the `release` channel is 1.11.5+0.x64.linux.gnu. You currently have `1.11.4+0.x64.linux.gnu` installed. Run:

  juliaup update

in your terminal shell to install Julia 1.11.5+0.x64.linux.gnu and update the `release` channel to that version.
/scratch/opt/lxu/CFLG/benchmarks/Kgroup_A Gurobi 7200.0 /scratch/opt/lxu/CFLG/results/Kgroup_A K100.5.con.red EFP Large
/scratch/opt/lxu/CFLG/benchmarks/Kgroup_A/K100.5.con.red

 read graph
data loaded


after absorb:31 31

max_piece:3
problem_graph/original graph: node: 39/31 edge: 128/120 dlt: 0.3835273439484856 break_avg_len: 0.17977844247585278 break_max_len: 0.3778633888111307elapsed CPU time: 0.038585 seconds
Set parameter TokenServer to value "solice01.zib.de"
Set parameter Threads to value 1
Set parameter OutputFlag to value 1
Set parameter MIPGap to value 0.0001
Set parameter MIPGapAbs to value 0.999998
Set parameter TimeLimit to value 7199.961415

 more cuts: false 0.3835273439484856 false
is_attach:falseformulation:EFP0 128 0

 model loaded

Gurobi Optimizer version 12.0.1 build v12.0.1rc0 (linux64 - "Debian GNU/Linux 12 (bookworm)")

CPU model: Intel(R) Xeon(R) Gold 5222 CPU @ 3.80GHz, instruction set [SSE2|AVX|AVX2|AVX512]
Thread count: 8 physical cores, 16 logical processors, using up to 1 threads

Non-default parameters:
TimeLimit  7199.961415
MIPGapAbs  0.999998
Threads  1

Optimize a model with 9084 rows, 4642 columns and 26751 nonzeros
Model fingerprint: 0xbe68f06e
Variable types: 295 continuous, 4347 integer (4347 binary)
Coefficient statistics:
  Matrix range     [1e-06, 1e+00]
  Objective range  [1e+00, 1e+00]
  Bounds range     [2e-02, 4e-01]
  RHS range        [2e-02, 1e+00]
Found heuristic solution: objective 62.0000000
Presolve removed 2169 rows and 283 columns
Presolve time: 0.08s
Presolved: 6915 rows, 4359 columns, 23632 nonzeros
Variable types: 167 continuous, 4192 integer (4192 binary)

Root relaxation: objective 1.530771e+00, 3054 iterations, 0.07 seconds (0.12 work units)

    Nodes    |    Current Node    |     Objective Bounds      |     Work
 Expl Unexpl |  Obj  Depth IntInf | Incumbent    BestBd   Gap | It/Node Time

     0     0    1.53077    0  229   62.00000    1.53077  97.5%     -    0s
H    0     0                      28.0000000    1.53077  94.5%     -    0s
H    0     0                      18.0000000    1.53077  91.5%     -    0s
H    0     0                      17.0000000    1.53077  91.0%     -    0s
H    0     0                      15.0000000    1.53077  89.8%     -    0s
H    0     0                      14.0000000    1.53077  89.1%     -    0s
H    0     0                      13.0000000    1.53077  88.2%     -    0s
     0     0    2.78670    0  294   13.00000    2.78670  78.6%     -    0s
H    0     0                       9.0000000    2.85021  68.3%     -    0s
H    0     0                       8.0000000    2.85021  64.4%     -    0s
     0     0    2.85021    0  347    8.00000    2.85021  64.4%     -    0s
     0     0    2.85021    0  321    8.00000    2.85021  64.4%     -    0s
     0     0    2.85021    0  323    8.00000    2.85021  64.4%     -    0s
     0     0    3.46463    0  295    8.00000    3.46463  56.7%     -    1s
     0     0    3.50412    0  337    8.00000    3.50412  56.2%     -    1s
     0     0    3.50440    0  340    8.00000    3.50440  56.2%     -    1s
     0     0    4.50000    0  122    8.00000    4.50000  43.8%     -    1s
     0     0    4.50000    0  127    8.00000    4.50000  43.8%     -    1s
     0     0    4.50000    0  176    8.00000    4.50000  43.7%     -    1s
     0     0    4.53071    0  215    8.00000    4.53071  43.4%     -    1s
     0     0    4.53285    0  261    8.00000    4.53285  43.3%     -    1s
     0     0    4.53285    0  261    8.00000    4.53285  43.3%     -    1s
     0     0    4.56311    0  159    8.00000    4.56311  43.0%     -    1s
     0     0    4.57280    0  132    8.00000    4.57280  42.8%     -    1s
     0     0    4.57280    0  127    8.00000    4.57280  42.8%     -    1s
     0     0    4.59435    0  217    8.00000    4.59435  42.6%     -    1s
     0     0    4.59769    0  205    8.00000    4.59769  42.5%     -    1s
     0     0    4.59769    0  205    8.00000    4.59769  42.5%     -    1s
     0     0    4.60020    0  223    8.00000    4.60020  42.5%     -    1s
     0     0    4.60169    0  220    8.00000    4.60169  42.5%     -    1s
     0     0    4.60729    0  237    8.00000    4.60729  42.4%     -    1s
     0     0    4.61562    0  212    8.00000    4.61562  42.3%     -    2s
     0     2    4.61562    0  207    8.00000    4.61562  42.3%     -    2s
   311   208    5.53747   17  131    8.00000    5.00964  37.4%   111    5s
   625   444    5.45743    6  212    8.00000    5.08333  36.5%  99.3   12s
   641   455    5.13896    7  271    8.00000    5.08333  36.5%  96.8   15s
H  650   437                       7.0000000    5.23611  25.2%  95.4   16s
   670   450    5.75038   14  432    7.00000    5.39569  22.9%  92.6   20s
   863   424    5.77698   26  251    7.00000    5.68254  18.8%   186   25s

Cutting planes:
  Learned: 1
  Lift-and-project: 13
  Cover: 21
  Implied bound: 5
  Clique: 1
  MIR: 12
  StrongCG: 2
  Flow cover: 28
  GUB cover: 38
  Zero half: 53
  RLT: 16
  Relax-and-lift: 3
  BQP: 1

Explored 1039 nodes (202929 simplex iterations) in 27.89 seconds (32.16 work units)
Thread count was 1 (of 16 available processors)

Solution count 10: 7 8 8 ... 17

Optimal solution found (tolerance 1.00e-04)
Best objective 7.000000000000e+00, best bound 7.000000000000e+00, gap 0.0000%

User-callback calls 10182, time in user-callback 0.01 sec

 sepatime0 0 0
7.0Stat(MathOptInterface.OPTIMAL, 7.0, 7.0, 0.0, 0.0, 0.038585, 27.885475873947144, 1039, Main.CFLG.EFP, "", #undef)
